(set-info :smt-lib-version 2.6)
(set-logic QF_UFLRA)
(set-info :source |
MathSat group

|)
(set-info :category "random")
(set-info :status sat)
(declare-fun x0 () Real)
(declare-fun x1 () Real)
(declare-fun x2 () Real)
(declare-fun x3 () Real)
(declare-fun x4 () Real)
(declare-fun x5 () Real)
(declare-fun x6 () Real)
(declare-fun x7 () Real)
(declare-fun x8 () Real)
(declare-fun x9 () Real)
(declare-fun x10 () Real)
(declare-fun x11 () Real)
(declare-fun x12 () Real)
(declare-fun x13 () Real)
(declare-fun x14 () Real)
(declare-fun x15 () Real)
(declare-fun x16 () Real)
(declare-fun x17 () Real)
(declare-fun x18 () Real)
(declare-fun x19 () Real)
(declare-fun x20 () Real)
(declare-fun x21 () Real)
(declare-fun x22 () Real)
(declare-fun x23 () Real)
(declare-fun x24 () Real)
(declare-fun x25 () Real)
(declare-fun x26 () Real)
(declare-fun x27 () Real)
(declare-fun x28 () Real)
(declare-fun x29 () Real)
(declare-fun x30 () Real)
(declare-fun x31 () Real)
(declare-fun x32 () Real)
(declare-fun x33 () Real)
(declare-fun x34 () Real)
(declare-fun x35 () Real)
(declare-fun x36 () Real)
(declare-fun x37 () Real)
(declare-fun x38 () Real)
(declare-fun x39 () Real)
(declare-fun f0_1 (Real) Real)
(declare-fun f0_2 (Real Real) Real)
(declare-fun f0_3 (Real Real Real) Real)
(declare-fun f0_4 (Real Real Real Real) Real)
(declare-fun P0 () Bool)
(declare-fun P1 () Bool)
(declare-fun P2 () Bool)
(declare-fun P3 () Bool)
(declare-fun P4 () Bool)
(declare-fun P5 () Bool)
(declare-fun P6 () Bool)
(declare-fun P7 () Bool)
(declare-fun P8 () Bool)
(declare-fun P9 () Bool)
(declare-fun P10 () Bool)
(declare-fun P11 () Bool)
(declare-fun P12 () Bool)
(declare-fun P13 () Bool)
(declare-fun P14 () Bool)
(declare-fun P15 () Bool)
(declare-fun P16 () Bool)
(declare-fun P17 () Bool)
(declare-fun P18 () Bool)
(declare-fun P19 () Bool)
(declare-fun P20 () Bool)
(declare-fun P21 () Bool)
(declare-fun P22 () Bool)
(declare-fun P23 () Bool)
(declare-fun P24 () Bool)
(declare-fun P25 () Bool)
(declare-fun P26 () Bool)
(declare-fun P27 () Bool)
(declare-fun P28 () Bool)
(declare-fun P29 () Bool)
(declare-fun P30 () Bool)
(declare-fun P31 () Bool)
(declare-fun P32 () Bool)
(declare-fun P33 () Bool)
(declare-fun P34 () Bool)
(declare-fun P35 () Bool)
(declare-fun P36 () Bool)
(declare-fun P37 () Bool)
(declare-fun P38 () Bool)
(declare-fun P39 () Bool)
(assert (let ((?v_117 (* 53 x11)) (?v_158 (< (- (+ (* 48 x11) (* 45 x14)) (* 21 x5)) 22)) (?v_53 (* 2 x21)) (?v_62 (* 45 x3))) (let ((?v_29 (distinct (+ (- (* 35 x34) (* 45 x4)) ?v_62) 6)) (?v_54 (= (- (+ (* 44 x5) (* 55 x16)) ?v_117) 32)) (?v_106 (= (- (+ (* 10 x7) (* 56 x18)) (* 21 x38)) 38)) (?v_46 (<= (- (+ (* 56 x10) (* 29 x18)) (* 9 x33)) 14)) (?v_121 (<= (- (+ (* 4 x28) (* 55 x19)) (* 15 x27)) 19)) (?v_124 (= (- (- (* 27 x16) (* 33 x2)) (* 55 x1)) 39)) (?v_59 (= x30 x19)) (?v_27 (distinct (f0_1 x27) (f0_2 x20 x30))) (?v_3 (f0_1 x1))) (let ((?v_90 (= (f0_2 x29 x38) ?v_3)) (?v_186 (distinct x23 x18)) (?v_4 (f0_1 x8))) (let ((?v_157 (= ?v_4 x35)) (?v_8 (f0_1 x35))) (let ((?v_120 (distinct ?v_8 x27)) (?v_170 (distinct (f0_2 x8 x26) (f0_2 x33 x3))) (?v_1 (f0_1 x17))) (let ((?v_2 (distinct (f0_2 x20 x11) ?v_1)) (?v_159 (distinct (f0_2 x29 x34) (f0_2 x36 x34))) (?v_103 (distinct (f0_1 x39) x6)) (?v_10 (= (f0_2 x5 x35) (f0_2 x2 x13))) (?v_49 (f0_1 x31))) (let ((?v_177 (= ?v_49 x0)) (?v_26 (= ?v_8 (f0_2 x24 x36))) (?v_88 (distinct x26 (f0_1 x11))) (?v_42 (= (f0_1 x30) (f0_1 x32))) (?v_35 (= (f0_2 x28 x30) (f0_2 x27 x4))) (?v_156 (distinct (f0_1 x38) (f0_1 x12))) (?v_125 (distinct (f0_1 x7) (f0_2 x11 x30))) (?v_48 (f0_1 x36))) (let ((?v_76 (distinct ?v_48 ?v_8)) (?v_36 (distinct (f0_2 x26 x37) (f0_1 x4))) (?v_12 (= (f0_2 x20 x25) (f0_1 x20))) (?v_18 (= ?v_4 ?v_3)) (?v_22 (distinct x16 ?v_1)) (?v_160 (distinct (f0_2 x35 x22) x26)) (?v_61 (distinct (f0_2 x37 x34) (f0_1 x18))) (?v_105 (f0_1 x15))) (let ((?v_129 (distinct ?v_105 (f0_2 x20 x32))) (?v_64 (distinct (f0_2 x1 x0) (f0_1 x28))) (?v_122 (= (f0_2 x5 x21) x32)) (?v_70 (distinct x29 x6)) (?v_189 (distinct (f0_2 x17 x1) (f0_1 x21))) (?v_71 (distinct (f0_2 x18 x10) ?v_49)) (?v_7 (distinct x8 (f0_2 x0 x32))) (?v_107 (distinct x12 x19)) (?v_55 (= x25 x9)) (?v_19 (= ?v_48 (f0_2 x33 x31))) (?v_79 (= x14 (f0_2 x8 x28))) (?v_80 (= x8 x24)) (?v_143 (= ?v_105 (f0_2 x31 x12))) (?v_92 (distinct (f0_2 x7 x10) (f0_1 x9))) (?v_56 (distinct (f0_1 x22) ?v_1)) (?v_39 (not ?v_59)) (?v_176 (not P14)) (?v_181 (not P33)) (?v_11 (not P18)) (?v_24 (not ?v_186)) (?v_87 (not P16)) (?v_9 (not P4)) (?v_162 (not ?v_10))) (let ((?v_20 (not ?v_7)) (?v_17 (not ?v_46)) (?v_6 (not P23)) (?v_21 (not P29)) (?v_126 (not ?v_27)) (?v_91 (not P30)) (?v_163 (not ?v_189)) (?v_184 (not P36)) (?v_152 (not ?v_2)) (?v_14 (not ?v_157)) (?v_195 (not P35)) (?v_13 (not ?v_125)) (?v_118 (not P28)) (?v_175 (not ?v_26)) (?v_207 (or ?v_55 ?v_10)) (?v_98 (not ?v_29)) (?v_68 (not P7)) (?v_89 (not ?v_12)) (?v_44 (not P6)) (?v_72 (not P27)) (?v_84 (not ?v_160)) (?v_102 (not ?v_22)) (?v_77 (not P34)) (?v_116 (not P5)) (?v_145 (not ?v_159)) (?v_101 (not ?v_18)) (?v_67 (not P3)) (?v_66 (not ?v_70)) (?v_110 (not P17)) (?v_199 (not P31)) (?v_33 (not P9)) (?v_148 (not P19)) (?v_34 (not ?v_177)) (?v_47 (not ?v_107)) (?v_37 (not ?v_36)) (?v_180 (not ?v_106)) (?v_74 (not ?v_129)) (?v_99 (not ?v_42)) (?v_187 (not P21)) (?v_127 (not ?v_80)) (?v_63 (not ?v_54)) (?v_78 (not P32)) (?v_65 (not P37)) (?v_112 (not ?v_56)) (?v_82 (not ?v_19)) (?v_138 (not P39)) (?v_135 (not P22)) (?v_134 (not ?v_64)) (?v_86 (not P10)) (?v_182 (not ?v_88)) (?v_100 (not ?v_92))) (let ((?v_155 (or P4 ?v_100)) (?v_108 (not P2)) (?v_140 (not ?v_103)) (?v_179 (not ?v_61)) (?v_153 (not P11)) (?v_142 (not ?v_121)) (?v_191 (not P38)) (?v_147 (not P12)) (?v_174 (not ?v_79)) (?v_165 (not ?v_76)) (?v_202 (not ?v_55)) (?v_173 (not ?v_143)) (?v_146 (not P1)) (?v_188 (not P8)) (?v_151 (not P25)) (?v_196 (not ?v_120)) (?v_185 (not ?v_35)) (?v_171 (not ?v_156)) (?v_203 (not P15)) (?v_166 (not P13)) (?v_194 (not ?v_122)) (?v_200 (not ?v_124)) (?v_190 (not P26)) (?v_178 (not ?v_90)) (?v_204 (or P31 ?v_17)) (?v_197 (not P20)) (?v_208 (or P18 ?v_134)) (?v_209 (not ?v_71)) (?v_51 (<= (- (+ (* 41 x3) (* 34 x37)) 0) 31)) (?v_114 (<= (+ (* 22 x13) (* 44 x36) (* 41 x14)) 42))) (let ((?v_130 (not ?v_114)) (?v_111 (not ?v_51)) (?v_136 (<= (+ (* 30 x33) (* 45 x20) (* 51 x5)) 28))) (let ((?v_144 (not ?v_136)) (?v_93 (< (- (- (* (- 31) x16) (* 13 x12)) (* 28 x28)) 13))) (let ((?v_0 (not ?v_93)) (?v_167 (= (+ (* 12 x28) (* 25 x12) (* 20 x24)) (- 30))) (?v_132 (<= (+ (* (- 14) x9) ?v_53 (* 57 x17)) 31))) (let ((?v_23 (not ?v_132)) (?v_5 (< (+ (* (- 44) x27) (* 14 x17) (* 8 x2)) (- 53))) (?v_15 (<= (- (- (* (- 27) x36) (* 30 x4)) (* 53 x37)) 23)) (?v_32 (< (- (- (* (- 54) x9) (* 36 x17)) (* 31 x21)) 15)) (?v_150 (<= (- (- (* (- 54) x17) (* 49 x20)) (* 42 x9)) (- 56))) (?v_164 (< (+ (- (* (- 34) x14) (* 30 x13)) (* 48 x18)) (- 12)))) (let ((?v_95 (not ?v_164)) (?v_128 (< (- (- (* (- 15) x28) (* 37 x31)) (* 47 x2)) 21))) (let ((?v_16 (not ?v_128)) (?v_38 (< (- (- (* (- 15) x17) (* 47 x14)) (* 35 x1)) (- 44))) (?v_123 (= (- (- (* 22 x27) (* 4 x15)) (* 25 x37)) (- 47)))) (let ((?v_52 (not ?v_123)) (?v_45 (< (- (+ (* 9 x34) (* 35 x15)) (* 2 x12)) (- 15)))) (let ((?v_109 (not ?v_45)) (?v_25 (<= (- (* (- 37) x23) (* 26 x29)) (- 53)))) (let ((?v_81 (not ?v_25)) (?v_31 (not ?v_15)) (?v_75 (= (- (+ (* (- 13) x15) (* 25 x31)) (* 48 x29)) (- 51))) (?v_57 (< (+ (* (- 44) x31) (* 54 x25) (* 50 x9)) 45)) (?v_139 (< (- (- (* (- 8) x0) (* 2 x36)) (* 3 x10)) (- 10))) (?v_43 (<= (+ (* (- 56) x21) (* 47 x37) (* 36 x6)) 0))) (let ((?v_41 (not ?v_43)) (?v_58 (< (+ (- (* (- 23) x13) (* 50 x5)) (* 42 x12)) (- 23)))) (let ((?v_83 (not ?v_58)) (?v_40 (< (+ (- (* 39 x17) (* 9 x29)) (* 13 x7)) (- 45)))) (let ((?v_94 (not ?v_40)) (?v_131 (< (- (- (* (- 39) x22) (* 35 x17)) (* 10 x4)) (- 6))) (?v_28 (<= (- (+ (* 54 x36) (* 36 x38)) (* 16 x8)) (- 5))) (?v_73 (= (- (+ (* (- 25) x29) (* 42 x18)) (* 35 x16)) (- 18)))) (let ((?v_30 (not ?v_73)) (?v_137 (<= (- (- (* 26 x6) (* 37 x12)) (* 26 x2)) (- 22)))) (let ((?v_69 (not ?v_137)) (?v_50 (not ?v_32)) (?v_172 (not ?v_38)) (?v_85 (<= (- (+ ?v_53 (* 42 x31)) (* 14 x5)) (- 45)))) (let ((?v_60 (not ?v_85)) (?v_149 (not ?v_57)) (?v_96 (distinct (+ (* 39 x10) (* 37 x29) ?v_62) (- 30)))) (let ((?v_183 (not ?v_96)) (?v_104 (not ?v_75)) (?v_141 (<= (- (+ (* 32 x4) (* 17 x35)) (* 5 x25)) (- 3)))) (let ((?v_113 (not ?v_141)) (?v_115 (<= (- (- (* (- 7) x33) (* 35 x21)) (* 3 x24)) (- 24))) (?v_97 (< (+ (- (* 47 x4) (* 43 x36)) (* 57 x9)) (- 21)))) (let ((?v_161 (not ?v_97)) (?v_198 (not ?v_115)) (?v_119 (<= (+ (* (- 14) x19) (* 43 x17) ?v_117) 7))) (let ((?v_133 (not ?v_119)) (?v_201 (not ?v_131)) (?v_154 (<= (+ (* (- 15) x13) (* 43 x18) (* 35 x24)) (- 55))) (?v_168 (not ?v_28))) (let ((?v_169 (not ?v_154)) (?v_192 (not ?v_167)) (?v_193 (not ?v_139)) (?v_205 (not ?v_150)) (?v_206 (not ?v_5))) (and (and (and (and (and (and (and (and (and (and (and (and (and (and (and (and (and (and (and (and (and (and (and (and (and (and (and (and (and (and (and (and (and (and (and (and (and (and (and (and (and (and (and (and (and (and (and (and (and (and (and (and (and (and (and (and (and (and (and (and (and (and (and (and (and (and (and (and (and (and (and (and (and (and (and (and (and (and (and (and (and (and (and (and (and (and (and (and (and (and (and (and (and (and (and (and (and (and (and (and (and (and (and (and (and (and (and (and (and (and (and (and (and (and (and (and (and (and (and (and (and (and (and (and (and (and (and (and (and (and (and (and (and (and (and (and (and (and (and (and (and (and (and (and (and (and (and (and (and (and (and (and (and (and (and (and (and (and (and (and (and (and (and (and (and (and (and (and (and (and (and (and (and (and (and (and (and (and (and (and (and (and (and (and (and (and (and (and (and (and (and (and (and (and (and (and (and (and (and (and (and (and (and (and (and (and (and (and (and (and (and (and (and (and (and (and (and (and (and (and (and (and (and (and (and (and (and (and (and (and (and (and (and (and (and (and (and (and (and (and (and (and (and (and (and (and (and (and (and (and (and (and (and (and (and (and (and (and (and (and (and (and (and (and (and (and (and (and (and (and (and (and (and (and (and (and (and (and (and (and (and (and (and (and (and (and (and (and (and (and (and (and (and (and (and (and (and (and (and (and (and (and (and (and (and (and (and (and (and (and (and (and (and (and (and (and (and (and (and (and (and (and (and (and (and (and (and (and (and (and (and (and (and (and (and (and (and (and (and (and (and (and (and (and (and (and (and (and (and (and (and (and (and (and (and (and (and (and (and (and (and (and (and (and (and (and (and (and (and (and (and (and (and (and (and (and (and (and (and (and (and (and (and (and (and (and (and (and (and (and (and (and (and (and (and (and (and (and (and (and (and (and (and (and (and (and (and (and (and (and (and (and (and (and (and (and (and (and (and (and (and (and (and (and (and (and (and (and (and (and (and (and (and (and (and (and (and (and (and (and (and (and (and (and (and (and (and (and (and (and (and (and (and (and (and (and (and (and (and (and (and (and (and (and (and (and (and (and (and (and (and (and (and (and (and (and (and (and (and (or (or ?v_0 ?v_167) P39) (or (or ?v_39 ?v_176) ?v_2)) (or (or ?v_19 ?v_64) ?v_121)) (or (or ?v_122 ?v_181) ?v_23)) (or (or ?v_11 ?v_24) ?v_87)) (or (or P8 ?v_120) ?v_0)) (or (or ?v_9 ?v_5) ?v_162)) (or (or ?v_56 ?v_20) ?v_17)) (or (or ?v_6 ?v_51) ?v_21)) (or (or ?v_15 ?v_32) ?v_126)) (or (or ?v_90 ?v_91) ?v_163)) (or (or ?v_150 ?v_184) P7)) (or (or ?v_152 ?v_42) ?v_18)) (or (or P31 P9) ?v_95)) (or (or P39 ?v_2) ?v_14)) (or (or ?v_195 ?v_13) ?v_118)) (or (or P19 P33) ?v_5)) (or (or P9 ?v_6) ?v_7)) (or (or ?v_175 ?v_9) ?v_88)) (or (or P6 ?v_124) P29)) (or ?v_207 ?v_16)) (or (or ?v_38 ?v_52) ?v_11)) (or (or ?v_98 ?v_68) ?v_12)) (or (or ?v_35 ?v_109) ?v_81)) (or (or ?v_89 ?v_13) ?v_14)) (or (or P20 ?v_31) ?v_16)) (or (or ?v_17 ?v_44) P25)) (or (or P4 ?v_130) ?v_75)) (or (or ?v_18 ?v_19) ?v_170)) (or (or P11 ?v_72) ?v_57)) (or (or ?v_5 ?v_84) ?v_139)) (or (or ?v_41 ?v_102) ?v_20)) (or (or ?v_158 ?v_77) P23)) (or (or ?v_21 ?v_22) ?v_83)) (or (or ?v_94 P4) ?v_116)) (or (or ?v_145 P33) ?v_23)) (or (or ?v_101 P4) ?v_24)) (or (or ?v_9 ?v_18) ?v_67)) (or (or P14 P33) ?v_5)) (or (or ?v_131 ?v_25) ?v_66)) (or (or ?v_28 P13) ?v_26)) (or (or ?v_27 ?v_110) P9)) (or (or ?v_28 P31) ?v_29)) (or (or ?v_199 ?v_103) ?v_30)) (or (or ?v_33 ?v_36) ?v_28)) (or (or ?v_148 ?v_30) ?v_34)) (or (or ?v_69 ?v_47) ?v_31)) (or (or ?v_11 ?v_50) P20)) (or (or ?v_33 ?v_34) ?v_35)) (or (or ?v_37 ?v_37) ?v_172)) (or (or ?v_39 ?v_180) ?v_40)) (or (or ?v_39 P29) ?v_41)) (or (or ?v_79 ?v_74) ?v_99)) (or (or ?v_187 ?v_30) ?v_43)) (or (or P30 P1) ?v_44)) (or (or ?v_61 ?v_45) ?v_46)) (or (or P7 ?v_33) ?v_47)) (or (or ?v_76 ?v_71) ?v_39)) (or (or ?v_127 P18) P10)) (or (or ?v_63 ?v_78) ?v_50)) (or (or ?v_111 ?v_7) ?v_52)) (or (or ?v_46 ?v_60) ?v_54)) (or (or P31 ?v_55) P21)) (or (or ?v_55 ?v_65) ?v_112)) (or (or ?v_149 ?v_82) P25)) (or (or ?v_138 ?v_58) ?v_59)) (or (or ?v_60 ?v_15) ?v_23)) (or (or ?v_135 P38) ?v_61)) (or (or ?v_183 ?v_63) ?v_134)) (or (or ?v_40 ?v_33) ?v_65)) (or (or ?v_31 ?v_66) ?v_67)) (or (or ?v_68 ?v_69) ?v_9)) (or (or ?v_70 ?v_71) ?v_72)) (or (or ?v_73 ?v_72) P31)) (or (or ?v_74 P37) P13)) (or (or ?v_104 ?v_15) ?v_41)) (or (or ?v_76 P10) ?v_77)) (or (or ?v_78 ?v_79) ?v_41)) (or (or ?v_86 ?v_80) ?v_81)) (or (or ?v_29 ?v_77) ?v_82)) (or (or ?v_10 ?v_60) ?v_64)) (or (or ?v_83 ?v_84) ?v_12)) (or (or ?v_85 ?v_71) P17)) (or (or ?v_113 P27) P4)) (or (or ?v_21 P28) ?v_10)) (or (or ?v_66 ?v_47) ?v_71)) (or (or ?v_26 ?v_0) ?v_86)) (or (or ?v_87 ?v_54) ?v_92)) (or (or ?v_88 P39) ?v_89)) (or (or ?v_72 ?v_90) ?v_55)) (or (or ?v_70 P28) ?v_182)) (or (or ?v_91 ?v_100) ?v_27)) (or (or ?v_42 ?v_115) P25)) (or (or P19 ?v_93) ?v_9)) (or (or ?v_94 ?v_90) ?v_97)) (or (or ?v_83 ?v_95) ?v_5)) (or (or ?v_82 ?v_96) ?v_97)) (or (or ?v_70 ?v_98) ?v_99)) (or ?v_155 ?v_101)) (or (or ?v_102 ?v_10) ?v_161)) (or (or ?v_45 P7) ?v_108)) (or (or ?v_140 ?v_18) ?v_29)) (or (or ?v_9 P9) P24)) (or (or ?v_0 P19) ?v_29)) (or (or P31 ?v_104) ?v_102)) (or (or ?v_143 ?v_69) ?v_106)) (or (or ?v_50 ?v_107) ?v_103)) (or (or ?v_108 ?v_64) ?v_92)) (or (or ?v_96 ?v_109) ?v_110)) (or (or ?v_75 ?v_18) P8)) (or (or ?v_111 ?v_112) ?v_43)) (or (or P15 P8) P18)) (or (or ?v_35 ?v_92) ?v_84)) (or (or ?v_41 ?v_113) ?v_114)) (or (or ?v_19 ?v_9) ?v_14)) (or (or ?v_76 ?v_32) ?v_198)) (or (or ?v_64 ?v_179) P36)) (or (or ?v_153 ?v_76) P17)) (or (or P0 P28) ?v_97)) (or (or ?v_76 ?v_69) ?v_104)) (or (or ?v_116 ?v_86) ?v_43)) (or (or ?v_103 P31) ?v_119)) (or (or P32 ?v_60) ?v_118)) (or (or ?v_133 ?v_120) ?v_10)) (or (or ?v_54 ?v_142) ?v_122)) (or (or ?v_80 ?v_68) ?v_34)) (or (or ?v_14 ?v_123) ?v_65)) (or (or P15 ?v_14) ?v_124)) (or (or P0 P39) ?v_86)) (or (or ?v_22 ?v_101) ?v_55)) (or (or ?v_102 ?v_86) ?v_65)) (or (or ?v_110 ?v_77) ?v_29)) (or (or ?v_35 ?v_191) ?v_125)) (or (or ?v_147 ?v_90) ?v_7)) (or (or P22 ?v_126) P27)) (or (or ?v_31 ?v_113) ?v_74)) (or (or ?v_127 ?v_128) ?v_174)) (or (or P36 P31) ?v_165)) (or (or ?v_129 ?v_130) ?v_131)) (or (or ?v_124 P29) ?v_136)) (or (or ?v_9 ?v_86) ?v_92)) (or (or ?v_132 ?v_133) ?v_134)) (or (or ?v_135 P17) ?v_6)) (or (or ?v_144 ?v_102) ?v_137)) (or (or ?v_51 ?v_42) ?v_6)) (or (or ?v_112 ?v_16) P5)) (or (or ?v_38 ?v_202) ?v_137)) (or (or ?v_50 ?v_84) ?v_138)) (or (or ?v_50 ?v_98) ?v_0)) (or (or ?v_128 ?v_139) ?v_94)) (or (or P13 ?v_6) ?v_110)) (or (or P29 ?v_140) ?v_25)) (or (or ?v_114 ?v_91) ?v_19)) (or (or P20 ?v_73) ?v_40)) (or (or ?v_141 ?v_31) ?v_87)) (or (or ?v_142 P38) ?v_116)) (or (or ?v_173 P17) ?v_144)) (or (or ?v_146 P5) ?v_109)) (or (or ?v_188 ?v_60) ?v_80)) (or (or ?v_145 P17) ?v_103)) (or (or ?v_129 ?v_85) ?v_78)) (or (or ?v_26 ?v_12) ?v_57)) (or (or ?v_29 ?v_151) ?v_125)) (or (or ?v_90 P37) ?v_80)) (or (or P28 ?v_59) ?v_196)) (or (or P38 ?v_146) ?v_68)) (or (or ?v_17 ?v_147) ?v_19)) (or (or P6 ?v_116) P23)) (or (or ?v_93 ?v_6) ?v_125)) (or (or ?v_15 ?v_26) ?v_30)) (or (or ?v_201 ?v_132) ?v_34)) (or (or ?v_9 ?v_100) P36)) (or (or ?v_79 ?v_145) ?v_56)) (or (or ?v_60 P14) ?v_25)) (or (or ?v_59 ?v_118) ?v_148)) (or (or ?v_149 ?v_27) P2)) (or (or ?v_154 P19) ?v_106)) (or (or ?v_150 ?v_151) P10)) (or (or P20 ?v_152) ?v_153)) (or (or ?v_19 ?v_185) P32)) (or (or P31 P17) ?v_57)) (or (or P20 ?v_40) ?v_142)) (or (or ?v_78 P21) ?v_93)) (or (or ?v_171 P17) P37)) (or (or ?v_58 P31) ?v_154)) (or (or ?v_168 P11) ?v_101)) (or (or ?v_35 P38) ?v_7)) (or (or ?v_203 ?v_166) P34)) (or (or ?v_85 ?v_98) P37)) (or ?v_155 ?v_130)) (or (or ?v_156 P33) ?v_194)) (or (or ?v_120 ?v_104) ?v_37)) (or (or P4 ?v_72) ?v_67)) (or (or ?v_107 P10) ?v_58)) (or (or ?v_103 P1) ?v_119)) (or (or P20 ?v_66) ?v_127)) (or (or ?v_157 ?v_111) ?v_16)) (or (or ?v_29 ?v_106) ?v_10)) (or (or ?v_9 ?v_90) ?v_158)) (or (or ?v_121 ?v_24) ?v_159)) (or (or ?v_160 P15) ?v_145)) (or (or ?v_69 ?v_81) ?v_38)) (or (or ?v_154 ?v_102) ?v_38)) (or (or ?v_19 ?v_200) P27)) (or (or ?v_24 P30) ?v_12)) (or (or P6 ?v_161) ?v_91)) (or (or ?v_45 ?v_82) ?v_33)) (or (or ?v_162 ?v_24) P16)) (or (or ?v_116 ?v_38) P35)) (or (or ?v_38 ?v_154) P6)) (or (or ?v_25 ?v_16) ?v_154)) (or (or P28 P34) ?v_37)) (or (or ?v_104 ?v_126) ?v_86)) (or (or ?v_106 ?v_103) P24)) (or (or P18 P5) ?v_122)) (or (or ?v_169 ?v_39) ?v_46)) (or (or ?v_39 ?v_109) ?v_38)) (or (or ?v_163 ?v_77) P38)) (or (or ?v_100 ?v_44) ?v_106)) (or (or ?v_108 P3) ?v_71)) (or (or ?v_46 ?v_20) P33)) (or (or ?v_164 ?v_88) ?v_104)) (or (or ?v_96 ?v_145) ?v_32)) (or (or P28 ?v_28) ?v_77)) (or (or ?v_165 ?v_39) ?v_153)) (or (or ?v_29 ?v_29) P22)) (or (or ?v_46 ?v_144) ?v_147)) (or (or ?v_110 ?v_190) ?v_84)) (or (or ?v_28 P10) ?v_104)) (or (or ?v_138 ?v_89) ?v_115)) (or (or ?v_178 ?v_137) ?v_147)) (or (or ?v_112 ?v_30) ?v_9)) (or (or ?v_128 ?v_158) ?v_166)) (or (or ?v_148 ?v_27) ?v_29)) (or (or P1 ?v_192) ?v_101)) (or (or P18 ?v_165) ?v_0)) (or (or ?v_136 ?v_40) P2)) (or (or ?v_168 ?v_35) ?v_27)) (or (or ?v_99 ?v_10) ?v_5)) (or (or ?v_129 ?v_145) ?v_169)) (or (or P30 ?v_16) ?v_170)) (or (or P24 ?v_122) ?v_14)) (or (or ?v_107 P38) ?v_171)) (or (or ?v_116 ?v_73) P13)) (or (or ?v_139 ?v_106) ?v_112)) (or (or ?v_81 ?v_113) ?v_33)) (or (or ?v_162 ?v_172) ?v_173)) (or (or ?v_127 ?v_156) ?v_104)) (or (or ?v_61 ?v_174) ?v_131)) (or (or ?v_129 ?v_175) ?v_111)) (or (or ?v_38 P7) ?v_154)) (or (or ?v_113 ?v_77) ?v_176)) (or (or ?v_132 ?v_92) ?v_43)) (or (or ?v_36 ?v_136) ?v_30)) (or (or ?v_154 ?v_38) ?v_177)) (or (or ?v_152 ?v_163) ?v_33)) (or (or ?v_111 ?v_14) ?v_11)) (or (or ?v_17 ?v_178) ?v_88)) (or (or ?v_135 ?v_99) ?v_103)) (or (or ?v_121 ?v_104) ?v_122)) (or (or ?v_90 P21) ?v_161)) (or (or P13 ?v_170) P9)) (or (or ?v_107 ?v_179) ?v_180)) (or (or ?v_20 ?v_25) P4)) (or (or ?v_136 ?v_96) ?v_89)) (or (or P11 ?v_68) ?v_144)) (or (or ?v_73 P14) ?v_5)) (or (or ?v_141 ?v_174) ?v_93)) (or (or ?v_33 ?v_168) P18)) (or (or ?v_165 ?v_125) ?v_54)) (or (or ?v_112 ?v_91) ?v_124)) (or (or ?v_84 P28) ?v_110)) (or (or P15 ?v_181) ?v_182)) (or (or ?v_25 ?v_87) ?v_54)) (or (or P24 ?v_106) ?v_137)) (or (or ?v_73 ?v_183) ?v_104)) (or (or ?v_124 ?v_160) ?v_82)) (or (or ?v_69 ?v_29) ?v_166)) (or (or P25 P29) P27)) (or (or ?v_31 ?v_65) ?v_2)) (or (or ?v_2 ?v_160) ?v_91)) (or (or ?v_23 ?v_170) ?v_95)) (or (or ?v_40 ?v_30) ?v_13)) (or (or ?v_59 ?v_184) ?v_185)) (or (or P29 ?v_92) P25)) (or (or P0 ?v_22) ?v_132)) (or (or ?v_127 ?v_115) ?v_7)) (or (or ?v_96 ?v_119) ?v_14)) (or (or ?v_24 ?v_173) ?v_150)) (or (or P22 P31) ?v_40)) (or (or ?v_163 P38) ?v_178)) (or (or ?v_123 ?v_111) ?v_97)) (or (or ?v_186 ?v_56) ?v_187)) (or (or P5 ?v_28) ?v_113)) (or (or ?v_137 ?v_142) ?v_97)) (or (or ?v_181 ?v_164) ?v_125)) (or (or ?v_96 P3) ?v_123)) (or (or P3 ?v_138) P10)) (or ?v_204 ?v_141)) (or (or (not P0) ?v_12) P27)) (or (or ?v_119 P37) ?v_177)) (or (or ?v_66 ?v_84) P5)) (or (or ?v_51 ?v_97) ?v_160)) (or (or ?v_64 ?v_181) ?v_45)) (or (or P0 ?v_188) ?v_44)) (or (or ?v_104 ?v_133) ?v_81)) (or (or P25 ?v_42) ?v_17)) (or (or ?v_54 ?v_162) ?v_193)) (or (or ?v_28 ?v_189) ?v_51)) (or (or ?v_120 ?v_56) ?v_161)) (or (or ?v_190 ?v_151) ?v_174)) (or (or ?v_67 ?v_18) P16)) (or (or ?v_38 ?v_122) ?v_63)) (or (or P5 ?v_151) ?v_69)) (or (or ?v_39 ?v_191) ?v_95)) (or (or ?v_92 ?v_100) P24)) (or (or ?v_84 ?v_69) ?v_161)) (or (or ?v_181 ?v_58) P12)) (or (or ?v_40 P18) ?v_60)) (or (or ?v_126 ?v_66) ?v_82)) (or (or ?v_103 P38) ?v_121)) (or (or ?v_180 ?v_100) P9)) (or (or ?v_35 ?v_56) P13)) (or (or P35 ?v_129) ?v_81)) (or (or ?v_13 ?v_97) ?v_128)) (or (or ?v_55 P34) ?v_186)) (or (or ?v_68 ?v_142) ?v_104)) (or (or ?v_125 ?v_197) ?v_27)) (or (or P10 ?v_158) ?v_39)) (or (or ?v_112 ?v_15) ?v_147)) (or (or ?v_60 ?v_138) ?v_133)) (or (or ?v_116 ?v_158) ?v_162)) (or (or ?v_171 ?v_24) ?v_177)) (or (or ?v_68 ?v_115) P33)) (or (or ?v_192 ?v_26) P26)) (or (or ?v_193 ?v_166) ?v_138)) (or (or ?v_179 ?v_124) ?v_182)) (or (or ?v_127 P32) ?v_153)) (or (or ?v_190 ?v_2) P6)) (or (or ?v_194 ?v_67) ?v_106)) (or (or ?v_127 P39) ?v_176)) (or (or ?v_109 ?v_58) P8)) (or (or ?v_127 ?v_15) ?v_68)) (or (or ?v_74 ?v_56) ?v_40)) (or (or ?v_72 ?v_180) P39)) (or (or ?v_74 ?v_120) ?v_85)) (or (or ?v_9 ?v_180) ?v_40)) (or (or P37 ?v_66) ?v_126)) (or (or ?v_66 P10) P17)) (or (or ?v_139 ?v_59) ?v_195)) (or (or ?v_41 P30) ?v_184)) (or (or P13 ?v_196) ?v_5)) (or (or ?v_61 P9) P35)) (or (or ?v_197 ?v_2) ?v_131)) (or (or ?v_177 ?v_90) ?v_205)) (or (or P14 P11) ?v_83)) (or (or ?v_32 P28) P37)) (or (or P2 ?v_42) ?v_58)) (or (or P24 ?v_198) P25)) (or (or (not ?v_170) P15) ?v_198)) (or (or ?v_187 ?v_159) ?v_161)) (or (or P30 ?v_141) P27)) (or (or P31 ?v_153) ?v_21)) (or (or ?v_89 P38) ?v_32)) (or (or ?v_96 ?v_102) ?v_71)) (or (or ?v_61 ?v_19) ?v_196)) (or (or ?v_168 ?v_136) ?v_131)) (or (or ?v_130 P39) ?v_64)) (or (or ?v_40 P24) ?v_86)) (or ?v_208 ?v_153)) (or (or ?v_146 ?v_97) ?v_29)) (or (or ?v_122 P5) ?v_124)) (or (or ?v_22 ?v_13) ?v_137)) (or (or P3 ?v_58) P5)) (or (or P19 ?v_59) ?v_143)) (or (or ?v_196 ?v_42) ?v_131)) (or (or ?v_164 ?v_177) ?v_116)) (or (or ?v_100 ?v_32) ?v_64)) (or (or ?v_172 ?v_199) ?v_120)) (or (or ?v_131 ?v_20) ?v_110)) (or (or ?v_192 ?v_76) ?v_130)) (or (or ?v_200 ?v_192) ?v_112)) (or (or ?v_44 ?v_20) (not P24))) (or (or ?v_188 ?v_76) ?v_26)) (or (or P24 P12) ?v_186)) (or (or ?v_64 ?v_189) ?v_94)) (or (or ?v_120 ?v_109) ?v_164)) (or (or ?v_74 ?v_108) ?v_174)) (or (or ?v_86 P11) ?v_70)) (or (or ?v_72 ?v_201) ?v_25)) (or (or ?v_141 ?v_169) (not ?v_158))) (or (or P10 ?v_109) ?v_11)) (or (or ?v_149 ?v_31) ?v_113)) (or (or ?v_86 ?v_43) ?v_87)) (or (or ?v_144 ?v_64) P16)) (or (or ?v_98 ?v_99) ?v_15)) (or (or ?v_167 P17) ?v_80)) (or (or ?v_202 ?v_135) ?v_25)) (or (or ?v_112 ?v_183) ?v_179)) (or (or P19 ?v_30) ?v_12)) (or (or ?v_156 P39) ?v_185)) (or (or ?v_22 ?v_37) ?v_164)) (or (or ?v_86 ?v_91) ?v_28)) (or (or ?v_67 ?v_2) ?v_153)) (or (or ?v_135 ?v_93) ?v_164)) (or (or ?v_32 ?v_129) P5)) (or (or ?v_94 ?v_95) P25)) (or (or ?v_159 ?v_182) ?v_55)) (or (or ?v_170 ?v_153) ?v_203)) (or (or ?v_110 ?v_54) ?v_51)) (or (or ?v_26 ?v_187) ?v_76)) (or (or ?v_14 ?v_73) ?v_34)) (or (or P1 ?v_67) ?v_198)) (or (or ?v_120 P32) ?v_180)) (or (or ?v_58 ?v_176) ?v_36)) (or (or P4 P33) ?v_197)) (or (or ?v_52 ?v_97) P28)) (or (or P27 ?v_81) ?v_16)) (or (or P17 ?v_5) P9)) (or (or ?v_77 ?v_169) ?v_175)) (or (or P37 ?v_93) ?v_95)) (or ?v_204 P0)) (or (or ?v_118 ?v_148) ?v_6)) (or (or ?v_199 ?v_86) ?v_181)) (or (or ?v_151 ?v_44) P38)) (or (or ?v_206 ?v_30) ?v_135)) (or (or ?v_141 ?v_34) ?v_77)) (or (or ?v_144 ?v_31) ?v_205)) (or (or ?v_44 P9) ?v_152)) (or (or ?v_82 P7) ?v_46)) (or (or ?v_82 ?v_181) ?v_138)) (or (or ?v_201 P2) ?v_168)) (or (or ?v_183 ?v_121) ?v_61)) (or (or ?v_206 ?v_112) ?v_185)) (or (or ?v_162 ?v_131) ?v_149)) (or (or ?v_159 ?v_101) ?v_142)) (or (or P39 ?v_18) ?v_36)) (or (or ?v_54 ?v_166) ?v_86)) (or (or ?v_188 ?v_75) ?v_59)) (or (or ?v_97 P7) ?v_65)) (or (or ?v_10 ?v_71) ?v_70)) (or (or ?v_75 ?v_156) ?v_179)) (or (or ?v_164 ?v_75) ?v_187)) (or ?v_207 ?v_146)) (or (or ?v_126 ?v_180) ?v_18)) (or (or ?v_196 ?v_68) ?v_170)) (or (or ?v_60 ?v_192) ?v_116)) (or (or ?v_168 ?v_138) ?v_148)) (or (or ?v_54 ?v_189) ?v_158)) (or ?v_208 P33)) (or (or ?v_182 P28) ?v_127)) (or (or ?v_201 ?v_78) ?v_42)) (or (or ?v_164 ?v_106) ?v_72)) (or (or ?v_114 ?v_32) ?v_195)) (or (or P2 P24) P37)) (or (or ?v_209 P17) ?v_168)) (or (or ?v_198 ?v_73) ?v_161)) (or (or P31 ?v_131) ?v_60)) (or (or ?v_181 ?v_172) ?v_46)) (or (or ?v_52 ?v_182) ?v_178)) (or (or ?v_6 ?v_128) ?v_146)) (or (or ?v_162 ?v_11) ?v_146)) (or (or ?v_144 ?v_91) ?v_90)) (or (or ?v_162 ?v_75) ?v_2)) (or (or ?v_36 ?v_15) ?v_81)) (or (or ?v_43 ?v_65) ?v_50)) (or (or ?v_205 ?v_123) ?v_173)) (or (or P37 ?v_29) ?v_54)) (or (or ?v_77 P29) P21)) (or (or ?v_150 ?v_145) ?v_175)) (or (or ?v_99 ?v_87) ?v_81)) (or (or P31 P37) ?v_200)) (or (or P21 P17) P32)) (or (or ?v_5 ?v_80) ?v_152)) (or (or ?v_209 P24) P32)) (or (or ?v_17 P28) ?v_129)) (or (or ?v_143 ?v_87) ?v_129)) (or (or ?v_112 ?v_201) ?v_189)) (or (or ?v_68 ?v_164) ?v_205)) (or (or ?v_196 ?v_167) ?v_150))))))))))))))))))))))))))))))))))
(check-sat)
(exit)
